C101

VEHICLE
NUMBER     CAPACITY
  2           15

CUSTOMER
CUST NO.  XCOORD.   YCOORD.    DEMAND   READY TIME  DUE DATE   SERVICE   TIME

    0      10          5          0          0       1236          0
    1       0         10          1        912        967         90
    2       1          4          3        825        870         90
    3       2          8          1         65        146         90
    4       3          4          1        727        782         90
    5       5          0          1         15         67         90
    6       6          8          2        621        702         90
    7       7          4          2        170        225         90
    8       8          4          2        255        324         90
    9       8          8          1        534        605         90
   10      12         10          1        357        410         90
   11      13          0          1        448        505         90
   12      13         10          2        652        721         90
   13      14          0          3         30         92         90
   14      15          5          1        567        620         90
   15      17          4          4        384        429         90



























































































OBSTACLE
OBS NO.  XSTART    XEND     YSTART   YEND

  501       1        3         9       9
  502       6        9         9       9
  503      12       14         9       9
  504      16       18         9       9
  505       1        3         6       7
  506       6        9         6       7
  507      12       14         6       7
  508      16       18         6       7
  509       1        3         1       3
  510       6        9         1       3
  511      12       14         1       3
  512      16       18         1       3